Normalized Data/p04_00_tsplib0_normalized_split0.vrp
NAME:p04_00_tsplib0_NORMALIZED_split
BEST_KNOWN: 0
COMMENT: 0
DIMENSION: 437
CAPACITY: 100
EDGE_WEIGHT_FORMAT: FUNCTION
EDGE_WEIGHT_TYPE: EXACT_2D
NODE_COORD_SECTION
1 0.00000 0.00000
2 2 17
3 2 17
4 2 17
5 14 14
6 14 14
7 17 29
8 17 29
9 17 29
10 17 29
11 -15 -9
12 -15 -9
13 -15 -9
14 -15 -9
15 5 -5
16 -14 12
17 -14 12
18 -14 12
19 -18 28
20 -18 28
21 -18 28
22 -18 28
23 -18 28
24 -4 27
25 -4 27
26 17 -2
27 16 -14
28 16 -14
29 7 6
30 7 6
31 7 6
32 7 6
33 7 6
34 -4 -3
35 -4 -3
36 -4 -3
37 -4 -3
38 -4 -3
39 -30 -10
40 -30 -10
41 -23 7
42 1 -19
43 17 6
44 17 6
45 17 6
46 -8 -12
47 -18 -2
48 -22 -22
49 -22 -22
50 -22 -22
51 -22 -22
52 22 23
53 22 23
54 22 23
55 22 23
56 22 23
57 27 7
58 27 7
59 27 7
60 27 7
61 7 22
62 7 22
63 7 22
64 7 22
65 -19 22
66 -19 22
67 -19 22
68 -19 22
69 -27 17
70 -28 3
71 -28 3
72 -28 3
73 -28 3
74 -28 3
75 -8 33
76 -8 33
77 -8 33
78 -5 13
79 -5 13
80 -5 13
81 8 32
82 8 32
83 8 32
84 23 13
85 23 13
86 23 13
87 23 -8
88 23 -8
89 23 -8
90 23 -8
91 23 -8
92 2 34
93 3 11
94 3 11
95 11 -25
96 11 -25
97 26 -2
98 26 -2
99 26 -2
100 26 -2
101 27 28
102 27 28
103 27 28
104 27 28
105 28 34
106 28 34
107 28 34
108 -3 -13
109 -3 -13
110 -3 -13
111 -3 -13
112 10 0
113 10 0
114 10 0
115 24 -20
116 24 -20
117 24 -20
118 -30 -29
119 -30 -29
120 -30 -29
121 -25 -18
122 -25 -18
123 -25 -18
124 -25 -18
125 -14 -25
126 -14 -25
127 -30 29
128 -5 -20
129 -5 -20
130 -5 -20
131 -5 -20
132 4 -25
133 -3 4
134 -3 4
135 -10 -3
136 -10 -3
137 -10 -3
138 -10 20
139 -10 20
140 -10 20
141 -10 20
142 13 -7
143 13 -7
144 13 -7
145 13 -7
146 13 -7
147 21 2
148 6 14
149 0 -18
150 0 -18
151 0 -18
152 20 10
153 20 10
154 20 -15
155 20 -15
156 20 -15
157 20 -15
158 20 -15
159 -20 -5
160 -20 -5
161 -20 -5
162 -20 -5
163 -10 -5
164 -15 15
165 -15 15
166 -25 8
167 -25 8
168 -25 8
169 -25 8
170 20 25
171 20 25
172 20 25
173 20 25
174 -5 25
175 -5 25
176 -5 25
177 -5 25
178 -15 30
179 -15 30
180 15 0
181 15 0
182 15 0
183 15 0
184 15 0
185 -5 -10
186 -5 -10
187 -20 -25
188 -5 -30
189 -5 -30
190 -5 -30
191 -5 -30
192 -25 -15
193 -25 -15
194 -25 -15
195 -25 -15
196 -25 -15
197 -30 -5
198 -15 5
199 -15 5
200 -20 25
201 -20 25
202 -20 25
203 -20 25
204 10 30
205 10 30
206 10 30
207 10 30
208 10 -15
209 10 -25
210 10 -25
211 10 -25
212 10 -25
213 10 -25
214 20 -30
215 20 -30
216 20 -30
217 20 -30
218 20 -30
219 30 0
220 30 -15
221 30 -15
222 30 -15
223 10 -5
224 10 -5
225 10 -5
226 10 -5
227 0 5
228 0 5
229 0 5
230 0 5
231 6 2
232 6 2
233 6 2
234 6 2
235 29 7
236 29 7
237 29 7
238 29 7
239 5 25
240 -4 17
241 -4 17
242 -4 17
243 -4 17
244 0 34
245 0 34
246 18 17
247 30 20
248 30 20
249 30 20
250 28 30
251 28 30
252 28 30
253 28 30
254 -33 25
255 -33 25
256 -15 -15
257 -15 -15
258 -15 -15
259 -15 -15
260 -30 -30
261 -30 -30
262 -30 -30
263 -30 -30
264 25 -23
265 25 -23
266 5 -10
267 5 -10
268 5 -10
269 5 -10
270 7 -28
271 7 -28
272 -11 -23
273 -11 -23
274 -12 -32
275 -12 -32
276 -12 -32
277 -24 -21
278 -24 -21
279 -24 -21
280 -24 -21
281 -24 -21
282 -29 3
283 -29 3
284 -29 3
285 -29 3
286 -27 21
287 -27 21
288 -27 21
289 -27 21
290 -22 17
291 -22 17
292 -22 17
293 -22 17
294 -22 17
295 -29 33
296 -29 33
297 12 12
298 12 12
299 14 23
300 -8 8
301 -8 8
302 -8 8
303 -8 8
304 2 -4
305 2 -4
306 2 -4
307 22 -6
308 22 -6
309 22 -6
310 22 -6
311 22 -6
312 28 -12
313 18 -23
314 18 -23
315 18 -23
316 -3 -23
317 -3 -23
318 -3 -23
319 1 -9
320 1 -9
321 1 -9
322 1 -9
323 1 -9
324 -14 -11
325 -14 -11
326 -14 -11
327 -14 -11
328 -14 -11
329 -18 -1
330 -23 -11
331 -23 -11
332 -11 23
333 -11 23
334 -11 23
335 -11 23
336 -11 23
337 -8 34
338 -20 42
339 -20 42
340 -20 42
341 -20 42
342 27 42
343 14 38
344 14 38
345 14 38
346 32 -30
347 32 -30
348 32 -30
349 21 4
350 21 4
351 21 4
352 21 4
353 21 4
354 2 12
355 2 12
356 2 12
357 2 21
358 2 21
359 22 33
360 22 33
361 22 33
362 12 -19
363 12 -19
364 12 -19
365 9 -18
366 9 -18
367 9 -18
368 9 -18
369 11 -22
370 11 -22
371 11 -22
372 11 -22
373 14 -24
374 14 -24
375 14 -24
376 14 -24
377 14 -24
378 14 7
379 14 7
380 18 8
381 18 8
382 18 8
383 26 17
384 22 13
385 22 13
386 21 2
387 21 2
388 21 2
389 20 19
390 20 19
391 20 19
392 20 19
393 -20 12
394 -20 12
395 -20 12
396 -20 12
397 -21 2
398 -24 -4
399 -24 -4
400 -24 -4
401 -19 -13
402 -31 -17
403 -31 -17
404 -31 -17
405 -31 -17
406 -7 -17
407 -7 -17
408 -7 -17
409 -7 -17
410 -9 17
411 -9 17
412 -9 17
413 -9 17
414 -9 0
415 -9 0
416 -9 0
417 -4 32
418 -13 -13
419 -17 -11
420 -17 -11
421 -9 -8
422 -9 -8
423 -9 -8
424 -9 -8
425 -10 -11
426 -13 -8
427 -10 -14
428 -10 -14
429 -16 -14
430 -15 -9
431 -15 -9
432 -15 -9
433 -15 -9
434 -17 -17
435 -17 -17
436 -17 -17
437 -17 -17
DEMAND_SECTION
1 0
2 1
3 1
4 1
5 10
6 5
7 5
8 1
9 1
10 1
11 1
12 1
13 1
14 1
15 10
16 5
17 1
18 1
19 5
20 1
21 1
22 1
23 1
24 10
25 1
26 5
27 1
28 1
29 5
30 1
31 1
32 1
33 1
34 10
35 1
36 1
37 1
38 1
39 10
40 1
41 10
42 5
43 5
44 1
45 1
46 1
47 20
48 1
49 1
50 1
51 1
52 10
53 1
54 1
55 1
56 1
57 1
58 1
59 1
60 1
61 1
62 1
63 1
64 1
65 5
66 1
67 1
68 1
69 5
70 10
71 1
72 1
73 1
74 1
75 1
76 1
77 1
78 5
79 1
80 1
81 5
82 1
83 1
84 1
85 1
86 1
87 5
88 1
89 1
90 1
91 1
92 5
93 5
94 1
95 10
96 1
97 10
98 1
99 1
100 1
101 5
102 1
103 1
104 1
105 1
106 1
107 1
108 1
109 1
110 1
111 1
112 5
113 1
114 1
115 5
116 1
117 1
118 1
119 1
120 1
121 10
122 1
123 1
124 1
125 5
126 1
127 5
128 5
129 1
130 1
131 1
132 5
133 1
134 1
135 10
136 1
137 1
138 5
139 1
140 1
141 1
142 5
143 1
144 1
145 1
146 1
147 5
148 5
149 1
150 1
151 1
152 5
153 1
154 5
155 1
156 1
157 1
158 1
159 10
160 1
161 1
162 1
163 1
164 1
165 1
166 1
167 1
168 1
169 1
170 5
171 1
172 1
173 1
174 5
175 1
176 1
177 1
178 5
179 1
180 5
181 1
182 1
183 1
184 1
185 10
186 1
187 10
188 1
189 1
190 1
191 1
192 5
193 1
194 1
195 1
196 1
197 1
198 5
199 1
200 5
201 1
202 1
203 1
204 1
205 1
206 1
207 1
208 5
209 5
210 1
211 1
212 1
213 1
214 10
215 1
216 1
217 1
218 1
219 1
220 1
221 1
222 1
223 5
224 1
225 1
226 1
227 5
228 1
229 1
230 1
231 5
232 1
233 1
234 1
235 1
236 1
237 1
238 1
239 10
240 10
241 1
242 1
243 1
244 10
245 1
246 5
247 5
248 1
249 1
250 1
251 1
252 1
253 1
254 1
255 1
256 1
257 1
258 1
259 1
260 5
261 1
262 1
263 1
264 10
265 5
266 1
267 1
268 1
269 1
270 1
271 1
272 1
273 1
274 1
275 1
276 1
277 5
278 1
279 1
280 1
281 1
282 5
283 1
284 1
285 1
286 10
287 1
288 1
289 1
290 10
291 5
292 1
293 1
294 1
295 10
296 5
297 5
298 1
299 5
300 1
301 1
302 1
303 1
304 5
305 1
306 1
307 5
308 1
309 1
310 1
311 1
312 1
313 1
314 1
315 1
316 1
317 1
318 1
319 5
320 1
321 1
322 1
323 1
324 10
325 1
326 1
327 1
328 1
329 1
330 5
331 1
332 5
333 1
334 1
335 1
336 1
337 5
338 1
339 1
340 1
341 1
342 10
343 10
344 1
345 1
346 10
347 1
348 1
349 10
350 5
351 1
352 1
353 1
354 1
355 1
356 1
357 1
358 1
359 5
360 1
361 1
362 10
363 1
364 1
365 1
366 1
367 1
368 1
369 1
370 1
371 1
372 1
373 5
374 1
375 1
376 1
377 1
378 5
379 1
380 5
381 1
382 1
383 1
384 10
385 1
386 1
387 1
388 1
389 10
390 1
391 1
392 1
393 5
394 1
395 1
396 1
397 5
398 1
399 1
400 1
401 20
402 10
403 5
404 1
405 1
406 10
407 1
408 1
409 1
410 1
411 1
412 1
413 1
414 5
415 1
416 1
417 1
418 1
419 10
420 1
421 10
422 1
423 1
424 1
425 10
426 5
427 5
428 1
429 5
430 1
431 1
432 1
433 1
434 5
435 1
436 1
437 1
DEPOT_SECTION
1
-1
EOF