Normalized Data/p04_00_tsplib0_normalized_split0.sol
436 -14 265 267 268 266 207 362 363 361 372 373 376 374 375 94 95 208 210 212 209 211 269 270 131 41 150 149 148 320 322 319 318 321 -29 31 5 4 245 388 389 390 391 171 172 170 169 54 55 52 53 51 247 248 246 382 84 85 83 384 383 151 152 379 380 381 377 378 231 232 -32 28 30 296 297 298 6 9 7 8 359 360 358 100 101 102 103 249 250 251 252 104 106 105 341 343 344 342 81 82 80 205 204 206 203 238 60 62 61 63 147 -36 34 37 33 35 420 421 423 422 326 325 327 323 324 419 418 400 428 417 424 185 184 -45 426 427 255 258 256 257 434 435 433 436 50 47 49 48 276 279 280 277 278 117 119 118 261 259 260 262 186 125 124 271 272 274 273 275 190 187 189 188 316 317 315 128 127 130 129 405 408 407 406 108 107 110 109 -92 93 354 353 355 1 3 2 357 356 91 243 244 416 336 75 74 76 23 24 174 173 175 176 332 335 333 334 331 137 138 139 140 410 411 409 412 240 239 241 242 77 78 79 133 -112 111 113 183 179 182 180 181 25 307 309 310 306 308 86 87 88 90 89 97 98 99 96 218 237 234 235 236 57 56 58 59 385 387 146 386 350 352 351 349 348 44 42 43 233 230 -132 301 299 302 300 164 163 67 66 64 65 200 202 201 199 19 20 22 21 18 178 177 340 338 337 339 294 295 126 253 254 287 286 288 285 68 292 293 289 291 290 -136 135 134 158 160 159 161 399 397 398 196 38 39 404 403 401 402 123 122 120 121 191 192 194 195 193 330 329 11 13 431 432 12 430 429 10 425 162 -198 197 15 16 17 395 394 392 393 40 165 168 167 166 284 281 283 282 72 69 71 73 70 396 328 46 414 413 415 -223 222 225 224 142 143 141 145 144 27 26 155 154 156 153 157 311 219 220 221 116 115 114 263 264 347 346 345 216 215 213 214 217 314 312 313 370 368 371 369 364 367 365 366 303 304 305 -226 229 228 227 0 





OBJ=
1005.448
BEST_KNOWN=
0.000